Minimize
	value: tt

Subject to
tt + 1000 s_1_1 > 0.0
tt - t_1_1 - 1000.940253 s_1_1  + 0.470127 s_1_8  + 0.470127 s_1_7  > -980.962700
tt + 1000 s_2_1 > 0.0
tt - t_2_1 - 1000.920812 s_2_1  + 0.460406 s_2_8  + 0.460406 s_2_7  > -962.010700
tt + 1000 s_1_2 > 0.0
tt - t_1_2 - 1000.470127 s_1_2  + 0.470127 s_1_7  > -980.864067
tt + 1000 s_2_2 > 0.0
tt - t_2_2 - 1000.460406 s_2_2  + 0.460406 s_2_7  > -961.675300
tt + 1000 s_1_3 > 0.0
tt - t_1_3 - 1000.940253 s_1_3  + 0.470127 s_1_8  + 0.470127 s_1_7  > -998.411233
tt + 1000 s_2_3 > 0.0
tt - t_2_3 - 1000.920812 s_2_3  + 0.460406 s_2_8  + 0.460406 s_2_7  > -995.239422
tt + 1000 s_1_4 > 0.0
tt - t_1_4 - 1000.470127 s_1_4  + 0.470127 s_1_7  > -996.009900
tt + 1000 s_2_4 > 0.0
tt - t_2_4 - 1000.460406 s_2_4  + 0.460406 s_2_7  > -992.728011
tt + 1000 s_1_5 > 0.0
tt - t_1_5 - 1000.470127 s_1_5  + 0.470127 s_1_8  > -991.005722
tt + 1000 s_2_5 > 0.0
tt - t_2_5 - 1000.460406 s_2_5  + 0.460406 s_2_8  > -981.297300
tt + 1000 s_1_6 > 0.0
tt - t_1_6 - 1002.820760 s_1_6  + 0.470127 s_1_7  + 0.470127 s_1_3  + 0.470127 s_1_1  + 0.470127 s_1_4  + 0.470127 s_1_2  + 0.470127 s_1_5  > -998.237900
tt + 1000 s_2_6 > 0.0
tt - t_2_6 - 1002.762435 s_2_6  + 0.460406 s_2_7  + 0.460406 s_2_3  + 0.460406 s_2_1  + 0.460406 s_2_4  + 0.460406 s_2_2  + 0.460406 s_2_5  > -996.456600
tt + 1000 s_1_7 > 0.0
tt - t_1_7 - 1000.000000 s_1_7  > -961.029900
tt + 1000 s_2_7 > 0.0
tt - t_2_7 - 1000.000000 s_2_7  > -958.473544
tt + 1000 s_1_8 > 0.0
tt - t_1_8 - 1000.000000 s_1_8  > -962.291500
tt + 1000 s_2_8 > 0.0
tt - t_2_8 - 1000.000000 s_2_8  > -959.368400
s_1_1 + s_2_1 = 1
s_1_2 + s_2_2 = 1
s_1_3 + s_2_3 = 1
s_1_4 + s_2_4 = 1
s_1_5 + s_2_5 = 1
s_1_6 + s_2_6 = 1
s_1_7 + s_2_7 = 1
s_1_8 + s_2_8 = 1
s_1_1 + s_1_2 + 1000 r_1_1_2 >= 2
- s_1_1 - s_1_2 - 1000 r_1_1_2 >= -1001
t_1_1 - t_1_2 - 1000.000000 u_1_1_2 - 0.470127 s_1_2  + 0.470127 s_1_7  + 2000.000000 r_1_1_2 > -980.864067
s_2_1 + s_2_2 + 1000 r_2_1_2 >= 2
- s_2_1 - s_2_2 - 1000 r_2_1_2 >= -1001
t_2_1 - t_2_2 - 1000.000000 u_2_1_2 - 0.460406 s_2_2  + 0.460406 s_2_7  + 2000.000000 r_2_1_2 > -961.675300
s_1_1 + s_1_3 + 1000 r_1_1_3 >= 2
- s_1_1 - s_1_3 - 1000 r_1_1_3 >= -1001
t_1_1 - t_1_3 - 1000.000000 u_1_1_3 - 0.940253 s_1_3  + 0.470127 s_1_8  + 0.470127 s_1_7  + 2000.000000 r_1_1_3 > -998.411233
s_2_1 + s_2_3 + 1000 r_2_1_3 >= 2
- s_2_1 - s_2_3 - 1000 r_2_1_3 >= -1001
t_2_1 - t_2_3 - 1000.000000 u_2_1_3 - 0.920812 s_2_3  + 0.460406 s_2_8  + 0.460406 s_2_7  + 2000.000000 r_2_1_3 > -995.239422
s_1_1 + s_1_4 + 1000 r_1_1_4 >= 2
- s_1_1 - s_1_4 - 1000 r_1_1_4 >= -1001
t_1_1 - t_1_4 - 1000.000000 u_1_1_4 - 0.470127 s_1_4  + 0.470127 s_1_7  + 2000.000000 r_1_1_4 > -996.009900
s_2_1 + s_2_4 + 1000 r_2_1_4 >= 2
- s_2_1 - s_2_4 - 1000 r_2_1_4 >= -1001
t_2_1 - t_2_4 - 1000.000000 u_2_1_4 - 0.460406 s_2_4  + 0.460406 s_2_7  + 2000.000000 r_2_1_4 > -992.728011
s_1_1 + s_1_5 + 1000 r_1_1_5 >= 2
- s_1_1 - s_1_5 - 1000 r_1_1_5 >= -1001
t_1_1 - t_1_5 - 1000.000000 u_1_1_5 - 0.470127 s_1_5  + 0.470127 s_1_8  + 2000.000000 r_1_1_5 > -991.005722
s_2_1 + s_2_5 + 1000 r_2_1_5 >= 2
- s_2_1 - s_2_5 - 1000 r_2_1_5 >= -1001
t_2_1 - t_2_5 - 1000.000000 u_2_1_5 - 0.460406 s_2_5  + 0.460406 s_2_8  + 2000.000000 r_2_1_5 > -981.297300
t_1_6 - t_1_1 - 1000.940253 s_1_1  + 0.470127 s_1_8  + 0.470127 s_1_7  > -980.962700
t_1_6 - t_2_1 - 1000.920812 s_2_1  + 0.460406 s_2_8  + 0.460406 s_2_7  > -962.010700
t_2_6 - t_1_1 - 1000.940253 s_1_1  + 0.470127 s_1_8  + 0.470127 s_1_7  > -980.962700
t_2_6 - t_2_1 - 1000.920812 s_2_1  + 0.460406 s_2_8  + 0.460406 s_2_7  > -962.010700
t_1_1 - t_1_7 - 1000.000000 s_1_7  > -961.029900
t_1_1 - t_2_7 - 1000.000000 s_2_7  > -958.473544
t_2_1 - t_1_7 - 1000.000000 s_1_7  > -961.029900
t_2_1 - t_2_7 - 1000.000000 s_2_7  > -958.473544
t_1_1 - t_1_8 - 1000.000000 s_1_8  > -962.291500
t_1_1 - t_2_8 - 1000.000000 s_2_8  > -959.368400
t_2_1 - t_1_8 - 1000.000000 s_1_8  > -962.291500
t_2_1 - t_2_8 - 1000.000000 s_2_8  > -959.368400
s_1_2 + s_1_1 + 1000 r_1_1_2 >= 2
- s_1_2 - s_1_1 - 1000 r_1_1_2 >= -1001
t_1_2 - t_1_1 + 1000.000000 u_1_1_2 - 0.940253 s_1_1  + 0.470127 s_1_8  + 0.470127 s_1_7  + 2000.000000 r_1_1_2 > 19.037300
s_2_2 + s_2_1 + 1000 r_2_1_2 >= 2
- s_2_2 - s_2_1 - 1000 r_2_1_2 >= -1001
t_2_2 - t_2_1 + 1000.000000 u_2_1_2 - 0.920812 s_2_1  + 0.460406 s_2_8  + 0.460406 s_2_7  + 2000.000000 r_2_1_2 > 37.989300
s_1_2 + s_1_3 + 1000 r_1_2_3 >= 2
- s_1_2 - s_1_3 - 1000 r_1_2_3 >= -1001
t_1_2 - t_1_3 - 1000.000000 u_1_2_3 - 0.940253 s_1_3  + 0.470127 s_1_8  + 0.470127 s_1_7  + 2000.000000 r_1_2_3 > -998.411233
s_2_2 + s_2_3 + 1000 r_2_2_3 >= 2
- s_2_2 - s_2_3 - 1000 r_2_2_3 >= -1001
t_2_2 - t_2_3 - 1000.000000 u_2_2_3 - 0.920812 s_2_3  + 0.460406 s_2_8  + 0.460406 s_2_7  + 2000.000000 r_2_2_3 > -995.239422
s_1_2 + s_1_4 + 1000 r_1_2_4 >= 2
- s_1_2 - s_1_4 - 1000 r_1_2_4 >= -1001
t_1_2 - t_1_4 - 1000.000000 u_1_2_4 - 0.470127 s_1_4  + 0.470127 s_1_7  + 2000.000000 r_1_2_4 > -996.009900
s_2_2 + s_2_4 + 1000 r_2_2_4 >= 2
- s_2_2 - s_2_4 - 1000 r_2_2_4 >= -1001
t_2_2 - t_2_4 - 1000.000000 u_2_2_4 - 0.460406 s_2_4  + 0.460406 s_2_7  + 2000.000000 r_2_2_4 > -992.728011
s_1_2 + s_1_5 + 1000 r_1_2_5 >= 2
- s_1_2 - s_1_5 - 1000 r_1_2_5 >= -1001
t_1_2 - t_1_5 - 1000.000000 u_1_2_5 - 0.470127 s_1_5  + 0.470127 s_1_8  + 2000.000000 r_1_2_5 > -991.005722
s_2_2 + s_2_5 + 1000 r_2_2_5 >= 2
- s_2_2 - s_2_5 - 1000 r_2_2_5 >= -1001
t_2_2 - t_2_5 - 1000.000000 u_2_2_5 - 0.460406 s_2_5  + 0.460406 s_2_8  + 2000.000000 r_2_2_5 > -981.297300
t_1_6 - t_1_2 - 1000.470127 s_1_2  + 0.470127 s_1_7  > -980.864067
t_1_6 - t_2_2 - 1000.460406 s_2_2  + 0.460406 s_2_7  > -961.675300
t_2_6 - t_1_2 - 1000.470127 s_1_2  + 0.470127 s_1_7  > -980.864067
t_2_6 - t_2_2 - 1000.460406 s_2_2  + 0.460406 s_2_7  > -961.675300
t_1_2 - t_1_7 - 1000.000000 s_1_7  > -961.029900
t_1_2 - t_2_7 - 1000.000000 s_2_7  > -958.473544
t_2_2 - t_1_7 - 1000.000000 s_1_7  > -961.029900
t_2_2 - t_2_7 - 1000.000000 s_2_7  > -958.473544
s_1_2 + s_1_8 + 1000 r_1_2_8 >= 2
- s_1_2 - s_1_8 - 1000 r_1_2_8 >= -1001
t_1_2 - t_1_8 - 1000.000000 u_1_2_8 - 0.000000 s_1_8  + 2000.000000 r_1_2_8 > -962.291500
s_2_2 + s_2_8 + 1000 r_2_2_8 >= 2
- s_2_2 - s_2_8 - 1000 r_2_2_8 >= -1001
t_2_2 - t_2_8 - 1000.000000 u_2_2_8 - 0.000000 s_2_8  + 2000.000000 r_2_2_8 > -959.368400
s_1_3 + s_1_1 + 1000 r_1_1_3 >= 2
- s_1_3 - s_1_1 - 1000 r_1_1_3 >= -1001
t_1_3 - t_1_1 + 1000.000000 u_1_1_3 - 0.940253 s_1_1  + 0.470127 s_1_8  + 0.470127 s_1_7  + 2000.000000 r_1_1_3 > 19.037300
s_2_3 + s_2_1 + 1000 r_2_1_3 >= 2
- s_2_3 - s_2_1 - 1000 r_2_1_3 >= -1001
t_2_3 - t_2_1 + 1000.000000 u_2_1_3 - 0.920812 s_2_1  + 0.460406 s_2_8  + 0.460406 s_2_7  + 2000.000000 r_2_1_3 > 37.989300
s_1_3 + s_1_2 + 1000 r_1_2_3 >= 2
- s_1_3 - s_1_2 - 1000 r_1_2_3 >= -1001
t_1_3 - t_1_2 + 1000.000000 u_1_2_3 - 0.470127 s_1_2  + 0.470127 s_1_7  + 2000.000000 r_1_2_3 > 19.135933
s_2_3 + s_2_2 + 1000 r_2_2_3 >= 2
- s_2_3 - s_2_2 - 1000 r_2_2_3 >= -1001
t_2_3 - t_2_2 + 1000.000000 u_2_2_3 - 0.460406 s_2_2  + 0.460406 s_2_7  + 2000.000000 r_2_2_3 > 38.324700
s_1_3 + s_1_4 + 1000 r_1_3_4 >= 2
- s_1_3 - s_1_4 - 1000 r_1_3_4 >= -1001
t_1_3 - t_1_4 - 1000.000000 u_1_3_4 - 0.470127 s_1_4  + 0.470127 s_1_7  + 2000.000000 r_1_3_4 > -996.009900
s_2_3 + s_2_4 + 1000 r_2_3_4 >= 2
- s_2_3 - s_2_4 - 1000 r_2_3_4 >= -1001
t_2_3 - t_2_4 - 1000.000000 u_2_3_4 - 0.460406 s_2_4  + 0.460406 s_2_7  + 2000.000000 r_2_3_4 > -992.728011
s_1_3 + s_1_5 + 1000 r_1_3_5 >= 2
- s_1_3 - s_1_5 - 1000 r_1_3_5 >= -1001
t_1_3 - t_1_5 - 1000.000000 u_1_3_5 - 0.470127 s_1_5  + 0.470127 s_1_8  + 2000.000000 r_1_3_5 > -991.005722
s_2_3 + s_2_5 + 1000 r_2_3_5 >= 2
- s_2_3 - s_2_5 - 1000 r_2_3_5 >= -1001
t_2_3 - t_2_5 - 1000.000000 u_2_3_5 - 0.460406 s_2_5  + 0.460406 s_2_8  + 2000.000000 r_2_3_5 > -981.297300
t_1_6 - t_1_3 - 1000.940253 s_1_3  + 0.470127 s_1_8  + 0.470127 s_1_7  > -998.411233
t_1_6 - t_2_3 - 1000.920812 s_2_3  + 0.460406 s_2_8  + 0.460406 s_2_7  > -995.239422
t_2_6 - t_1_3 - 1000.940253 s_1_3  + 0.470127 s_1_8  + 0.470127 s_1_7  > -998.411233
t_2_6 - t_2_3 - 1000.920812 s_2_3  + 0.460406 s_2_8  + 0.460406 s_2_7  > -995.239422
t_1_3 - t_1_7 - 1000.000000 s_1_7  > -961.029900
t_1_3 - t_2_7 - 1000.000000 s_2_7  > -958.473544
t_2_3 - t_1_7 - 1000.000000 s_1_7  > -961.029900
t_2_3 - t_2_7 - 1000.000000 s_2_7  > -958.473544
t_1_3 - t_1_8 - 1000.000000 s_1_8  > -962.291500
t_1_3 - t_2_8 - 1000.000000 s_2_8  > -959.368400
t_2_3 - t_1_8 - 1000.000000 s_1_8  > -962.291500
t_2_3 - t_2_8 - 1000.000000 s_2_8  > -959.368400
s_1_4 + s_1_1 + 1000 r_1_1_4 >= 2
- s_1_4 - s_1_1 - 1000 r_1_1_4 >= -1001
t_1_4 - t_1_1 + 1000.000000 u_1_1_4 - 0.940253 s_1_1  + 0.470127 s_1_8  + 0.470127 s_1_7  + 2000.000000 r_1_1_4 > 19.037300
s_2_4 + s_2_1 + 1000 r_2_1_4 >= 2
- s_2_4 - s_2_1 - 1000 r_2_1_4 >= -1001
t_2_4 - t_2_1 + 1000.000000 u_2_1_4 - 0.920812 s_2_1  + 0.460406 s_2_8  + 0.460406 s_2_7  + 2000.000000 r_2_1_4 > 37.989300
s_1_4 + s_1_2 + 1000 r_1_2_4 >= 2
- s_1_4 - s_1_2 - 1000 r_1_2_4 >= -1001
t_1_4 - t_1_2 + 1000.000000 u_1_2_4 - 0.470127 s_1_2  + 0.470127 s_1_7  + 2000.000000 r_1_2_4 > 19.135933
s_2_4 + s_2_2 + 1000 r_2_2_4 >= 2
- s_2_4 - s_2_2 - 1000 r_2_2_4 >= -1001
t_2_4 - t_2_2 + 1000.000000 u_2_2_4 - 0.460406 s_2_2  + 0.460406 s_2_7  + 2000.000000 r_2_2_4 > 38.324700
s_1_4 + s_1_3 + 1000 r_1_3_4 >= 2
- s_1_4 - s_1_3 - 1000 r_1_3_4 >= -1001
t_1_4 - t_1_3 + 1000.000000 u_1_3_4 - 0.940253 s_1_3  + 0.470127 s_1_8  + 0.470127 s_1_7  + 2000.000000 r_1_3_4 > 1.588767
s_2_4 + s_2_3 + 1000 r_2_3_4 >= 2
- s_2_4 - s_2_3 - 1000 r_2_3_4 >= -1001
t_2_4 - t_2_3 + 1000.000000 u_2_3_4 - 0.920812 s_2_3  + 0.460406 s_2_8  + 0.460406 s_2_7  + 2000.000000 r_2_3_4 > 4.760578
s_1_4 + s_1_5 + 1000 r_1_4_5 >= 2
- s_1_4 - s_1_5 - 1000 r_1_4_5 >= -1001
t_1_4 - t_1_5 - 1000.000000 u_1_4_5 - 0.470127 s_1_5  + 0.470127 s_1_8  + 2000.000000 r_1_4_5 > -991.005722
s_2_4 + s_2_5 + 1000 r_2_4_5 >= 2
- s_2_4 - s_2_5 - 1000 r_2_4_5 >= -1001
t_2_4 - t_2_5 - 1000.000000 u_2_4_5 - 0.460406 s_2_5  + 0.460406 s_2_8  + 2000.000000 r_2_4_5 > -981.297300
t_1_6 - t_1_4 - 1000.470127 s_1_4  + 0.470127 s_1_7  > -996.009900
t_1_6 - t_2_4 - 1000.460406 s_2_4  + 0.460406 s_2_7  > -992.728011
t_2_6 - t_1_4 - 1000.470127 s_1_4  + 0.470127 s_1_7  > -996.009900
t_2_6 - t_2_4 - 1000.460406 s_2_4  + 0.460406 s_2_7  > -992.728011
t_1_4 - t_1_7 - 1000.000000 s_1_7  > -961.029900
t_1_4 - t_2_7 - 1000.000000 s_2_7  > -958.473544
t_2_4 - t_1_7 - 1000.000000 s_1_7  > -961.029900
t_2_4 - t_2_7 - 1000.000000 s_2_7  > -958.473544
s_1_4 + s_1_8 + 1000 r_1_4_8 >= 2
- s_1_4 - s_1_8 - 1000 r_1_4_8 >= -1001
t_1_4 - t_1_8 - 1000.000000 u_1_4_8 - 0.000000 s_1_8  + 2000.000000 r_1_4_8 > -962.291500
s_2_4 + s_2_8 + 1000 r_2_4_8 >= 2
- s_2_4 - s_2_8 - 1000 r_2_4_8 >= -1001
t_2_4 - t_2_8 - 1000.000000 u_2_4_8 - 0.000000 s_2_8  + 2000.000000 r_2_4_8 > -959.368400
s_1_5 + s_1_1 + 1000 r_1_1_5 >= 2
- s_1_5 - s_1_1 - 1000 r_1_1_5 >= -1001
t_1_5 - t_1_1 + 1000.000000 u_1_1_5 - 0.940253 s_1_1  + 0.470127 s_1_8  + 0.470127 s_1_7  + 2000.000000 r_1_1_5 > 19.037300
s_2_5 + s_2_1 + 1000 r_2_1_5 >= 2
- s_2_5 - s_2_1 - 1000 r_2_1_5 >= -1001
t_2_5 - t_2_1 + 1000.000000 u_2_1_5 - 0.920812 s_2_1  + 0.460406 s_2_8  + 0.460406 s_2_7  + 2000.000000 r_2_1_5 > 37.989300
s_1_5 + s_1_2 + 1000 r_1_2_5 >= 2
- s_1_5 - s_1_2 - 1000 r_1_2_5 >= -1001
t_1_5 - t_1_2 + 1000.000000 u_1_2_5 - 0.470127 s_1_2  + 0.470127 s_1_7  + 2000.000000 r_1_2_5 > 19.135933
s_2_5 + s_2_2 + 1000 r_2_2_5 >= 2
- s_2_5 - s_2_2 - 1000 r_2_2_5 >= -1001
t_2_5 - t_2_2 + 1000.000000 u_2_2_5 - 0.460406 s_2_2  + 0.460406 s_2_7  + 2000.000000 r_2_2_5 > 38.324700
s_1_5 + s_1_3 + 1000 r_1_3_5 >= 2
- s_1_5 - s_1_3 - 1000 r_1_3_5 >= -1001
t_1_5 - t_1_3 + 1000.000000 u_1_3_5 - 0.940253 s_1_3  + 0.470127 s_1_8  + 0.470127 s_1_7  + 2000.000000 r_1_3_5 > 1.588767
s_2_5 + s_2_3 + 1000 r_2_3_5 >= 2
- s_2_5 - s_2_3 - 1000 r_2_3_5 >= -1001
t_2_5 - t_2_3 + 1000.000000 u_2_3_5 - 0.920812 s_2_3  + 0.460406 s_2_8  + 0.460406 s_2_7  + 2000.000000 r_2_3_5 > 4.760578
s_1_5 + s_1_4 + 1000 r_1_4_5 >= 2
- s_1_5 - s_1_4 - 1000 r_1_4_5 >= -1001
t_1_5 - t_1_4 + 1000.000000 u_1_4_5 - 0.470127 s_1_4  + 0.470127 s_1_7  + 2000.000000 r_1_4_5 > 3.990100
s_2_5 + s_2_4 + 1000 r_2_4_5 >= 2
- s_2_5 - s_2_4 - 1000 r_2_4_5 >= -1001
t_2_5 - t_2_4 + 1000.000000 u_2_4_5 - 0.460406 s_2_4  + 0.460406 s_2_7  + 2000.000000 r_2_4_5 > 7.271989
t_1_6 - t_1_5 - 1000.470127 s_1_5  + 0.470127 s_1_8  > -991.005722
t_1_6 - t_2_5 - 1000.460406 s_2_5  + 0.460406 s_2_8  > -981.297300
t_2_6 - t_1_5 - 1000.470127 s_1_5  + 0.470127 s_1_8  > -991.005722
t_2_6 - t_2_5 - 1000.460406 s_2_5  + 0.460406 s_2_8  > -981.297300
s_1_5 + s_1_7 + 1000 r_1_5_7 >= 2
- s_1_5 - s_1_7 - 1000 r_1_5_7 >= -1001
t_1_5 - t_1_7 - 1000.000000 u_1_5_7 - 0.000000 s_1_7  + 2000.000000 r_1_5_7 > -961.029900
s_2_5 + s_2_7 + 1000 r_2_5_7 >= 2
- s_2_5 - s_2_7 - 1000 r_2_5_7 >= -1001
t_2_5 - t_2_7 - 1000.000000 u_2_5_7 - 0.000000 s_2_7  + 2000.000000 r_2_5_7 > -958.473544
t_1_5 - t_1_8 - 1000.000000 s_1_8  > -962.291500
t_1_5 - t_2_8 - 1000.000000 s_2_8  > -959.368400
t_2_5 - t_1_8 - 1000.000000 s_1_8  > -962.291500
t_2_5 - t_2_8 - 1000.000000 s_2_8  > -959.368400
t_1_6 - t_1_7 - 1000.000000 s_1_7  > -961.029900
t_1_6 - t_2_7 - 1000.000000 s_2_7  > -958.473544
t_2_6 - t_1_7 - 1000.000000 s_1_7  > -961.029900
t_2_6 - t_2_7 - 1000.000000 s_2_7  > -958.473544
s_1_7 + s_1_5 + 1000 r_1_5_7 >= 2
- s_1_7 - s_1_5 - 1000 r_1_5_7 >= -1001
t_1_7 - t_1_5 + 1000.000000 u_1_5_7 - 0.470127 s_1_5  + 0.470127 s_1_8  + 2000.000000 r_1_5_7 > 8.994278
s_2_7 + s_2_5 + 1000 r_2_5_7 >= 2
- s_2_7 - s_2_5 - 1000 r_2_5_7 >= -1001
t_2_7 - t_2_5 + 1000.000000 u_2_5_7 - 0.460406 s_2_5  + 0.460406 s_2_8  + 2000.000000 r_2_5_7 > 18.702700
s_1_7 + s_1_8 + 1000 r_1_7_8 >= 2
- s_1_7 - s_1_8 - 1000 r_1_7_8 >= -1001
t_1_7 - t_1_8 - 1000.000000 u_1_7_8 - 0.000000 s_1_8  + 2000.000000 r_1_7_8 > -962.291500
s_2_7 + s_2_8 + 1000 r_2_7_8 >= 2
- s_2_7 - s_2_8 - 1000 r_2_7_8 >= -1001
t_2_7 - t_2_8 - 1000.000000 u_2_7_8 - 0.000000 s_2_8  + 2000.000000 r_2_7_8 > -959.368400
s_1_8 + s_1_2 + 1000 r_1_2_8 >= 2
- s_1_8 - s_1_2 - 1000 r_1_2_8 >= -1001
t_1_8 - t_1_2 + 1000.000000 u_1_2_8 - 0.470127 s_1_2  + 0.470127 s_1_7  + 2000.000000 r_1_2_8 > 19.135933
s_2_8 + s_2_2 + 1000 r_2_2_8 >= 2
- s_2_8 - s_2_2 - 1000 r_2_2_8 >= -1001
t_2_8 - t_2_2 + 1000.000000 u_2_2_8 - 0.460406 s_2_2  + 0.460406 s_2_7  + 2000.000000 r_2_2_8 > 38.324700
s_1_8 + s_1_4 + 1000 r_1_4_8 >= 2
- s_1_8 - s_1_4 - 1000 r_1_4_8 >= -1001
t_1_8 - t_1_4 + 1000.000000 u_1_4_8 - 0.470127 s_1_4  + 0.470127 s_1_7  + 2000.000000 r_1_4_8 > 3.990100
s_2_8 + s_2_4 + 1000 r_2_4_8 >= 2
- s_2_8 - s_2_4 - 1000 r_2_4_8 >= -1001
t_2_8 - t_2_4 + 1000.000000 u_2_4_8 - 0.460406 s_2_4  + 0.460406 s_2_7  + 2000.000000 r_2_4_8 > 7.271989
s_1_8 + s_1_7 + 1000 r_1_7_8 >= 2
- s_1_8 - s_1_7 - 1000 r_1_7_8 >= -1001
t_1_8 - t_1_7 + 1000.000000 u_1_7_8 - 0.000000 s_1_7  + 2000.000000 r_1_7_8 > 38.970100
s_2_8 + s_2_7 + 1000 r_2_7_8 >= 2
- s_2_8 - s_2_7 - 1000 r_2_7_8 >= -1001
t_2_8 - t_2_7 + 1000.000000 u_2_7_8 - 0.000000 s_2_7  + 2000.000000 r_2_7_8 > 41.526456
Binary
s_1_1
s_2_1
s_1_2
s_2_2
s_1_3
s_2_3
s_1_4
s_2_4
s_1_5
s_2_5
s_1_6
s_2_6
s_1_7
s_2_7
s_1_8
s_2_8
u_1_1_2
r_1_1_2
u_2_1_2
r_2_1_2
u_1_1_3
r_1_1_3
u_2_1_3
r_2_1_3
u_1_1_4
r_1_1_4
u_2_1_4
r_2_1_4
u_1_1_5
r_1_1_5
u_2_1_5
r_2_1_5
u_1_2_3
r_1_2_3
u_2_2_3
r_2_2_3
u_1_2_4
r_1_2_4
u_2_2_4
r_2_2_4
u_1_2_5
r_1_2_5
u_2_2_5
r_2_2_5
u_1_2_8
r_1_2_8
u_2_2_8
r_2_2_8
u_1_3_4
r_1_3_4
u_2_3_4
r_2_3_4
u_1_3_5
r_1_3_5
u_2_3_5
r_2_3_5
u_1_4_5
r_1_4_5
u_2_4_5
r_2_4_5
u_1_4_8
r_1_4_8
u_2_4_8
r_2_4_8
u_1_5_7
r_1_5_7
u_2_5_7
r_2_5_7
u_1_7_8
r_1_7_8
u_2_7_8
r_2_7_8

End
